c WARNING: for repeatability, setting FPU to use double precision
d VARIABLES            226086       
d CONSTRAINTS          987038       
c ============================[ Problem Statistics ]=============================
c |                                                                             |
c |  Number of variables:        226086                                         |
c |  Number of clauses:          987038                                         |
c |  Parse time:                   0.16 s                                       |
c |                                                                             |
c ============================[ Search Statistics ]==============================
c | Conflicts |          ORIGINAL         |          LEARNT          | Progress |
c |           |    Vars  Clauses Literals |    Limit  Clauses Lit/Cl |          |
c ===============================================================================
c |       100 |  187451   887408  2149653 |   325382      100    117 | 17.089 % |
c |       250 |  187451   887408  2149653 |   357921      250     81 | 17.089 % |
c |       475 |  187451   887408  2149653 |   393713      475     72 | 17.089 % |
c |       812 |  187451   887408  2149653 |   433084      812     62 | 17.089 % |
c |      1318 |  187451   887408  2149653 |   476393     1318     68 | 17.089 % |
c |      2077 |  187451   887408  2149653 |   524032     2077     73 | 17.089 % |
c |      3216 |  187451   887408  2149653 |   576435     3216     82 | 17.089 % |
c |      4924 |  187451   887408  2149653 |   634079     4924     83 | 17.089 % |
c |      7486 |  187451   887408  2149653 |   697487     7486     79 | 17.089 % |
c |     11330 |  187451   887408  2149653 |   767235    11330     73 | 17.089 % |
c |     17096 |  187451   887408  2149653 |   843959    17096     73 | 17.089 % |
c |     25745 |  187451   887408  2149653 |   928355    25745     71 | 17.089 % |
c |     38719 |  187451   887408  2149653 |  1021191    38719     66 | 17.089 % |
c |     58180 |  187451   887408  2149653 |  1123310    58180     64 | 17.089 % |
c |     87372 |  187451   887408  2149653 |  1235641    87372     57 | 17.089 % |
c ===============================================================================
c restarts              : 255
c conflicts             : 101630         (2566 /sec)
c decisions             : 196322         (0.00 % random) (4956 /sec)
c propagations          : 183702471      (4637725 /sec)
c conflict literals     : 5461216        (49.49 % deleted)
d RESTARTS             255
d FAILURES             101630       
d NODES                196322       
d BACKTRACKS           196322       
d PROPAGATIONS         183702471    
d NOGOODSIZE           53.74 
d MEMORY               146.00 
d TIME                 39.6105 

s UNSATISFIABLE
